20	5
0	4	4	2	3	1
1	3	10	5	7
2	3	8	12	10
3	3	13	7	5
4	2	13	12
5	3	9	12	8
6	1	16
7	2	18	9
8	1	6
9	3	19	20	17
10	3	9	14	11
11	4	20	17	18	19
12	3	15	6	11
13	2	10	8
14	4	19	18	20	17
15	3	17	19	20
16	1	21
17	1	21
18	1	21
19	1	21
20	1	21
21	0
0	0	0	0	0	0	0
1	8	4	2	3	5	4
2	5	3	5	3	4	5
3	9	2	3	3	2	1
4	10	1	2	1	4	5
5	4	2	4	1	1	1
6	9	2	5	5	4	3
7	6	3	1	3	1	5
8	3	3	3	4	4	4
9	3	3	3	3	5	5
10	2	2	3	5	5	5
11	1	4	4	3	4	2
12	3	2	5	3	3	2
13	2	5	2	4	2	1
14	6	3	4	4	3	5
15	1	2	1	4	3	3
16	10	3	1	1	3	2
17	4	2	2	2	3	3
18	6	5	5	4	2	4
19	10	2	4	5	1	1
20	5	2	4	5	4	2
21	0	0	0	0	0	0
8	9	8	10	10
